language Essence 1.3

letting bot_end be [22, 388, 61, 431, 37, 18, 386, 362, 43, 430, 98, 0, 378, 64, 347, 112, 54, 348; int(1..18)]
letting bot_start be [427, 110, 351, 149, 341, 304, 71, 8, 402, 9, 429, 244, 48, 384, 24, 425, 374, 38; int(1..18)]
letting buffer_col be 2
letting buffer_row be 2
letting corridor_size be 1
letting n_shelves_col be 1
letting n_shelves_row be 29
letting shelf_col_size be 2
letting shelf_row_size be 1
